21563.21
73 81 56 31 27 58 75 10 86 78 67 98 42 53 9 63 59 41 48 68 15 12 65 0 93 97 33 60 1 36 45 46 30 94 82 49 85 6 23 18 52 22 8 90 38 70 79 26 14 29 51 84 17 72 19 25 40 43 44 99 11 32 21 20 35 54 92 5 87 88 77 37 47 7 83 39 74 66 57 71 24 3 55 96 80 16 4 91 69 13 28 62 64 76 34 50 2 89 61 95